p cnf 83 272
-3 1 0
-3 -2 0
-1 2 3 0
-7 5 0
-7 -6 0
-5 6 7 0
-9 -7 0
-9 8 0
7 -8 9 0
-10 -4 0
-10 -9 0
4 9 10 0
-3 -10 -11 0
3 10 -11 0
-3 10 11 0
3 -10 11 0
-7 -12 0
7 -12 0
-7 -2 -13 0
7 2 -13 0
-7 2 13 0
7 -2 13 0
14 13 0
14 -2 0
-13 2 -14 0
-15 5 0
-15 -14 0
-5 14 15 0
-17 -18 0
17 -18 0
19 -16 0
19 -18 0
16 18 -19 0
-15 -19 -20 0
15 19 -20 0
-15 19 20 0
15 -19 20 0
-21 13 0
-21 -20 0
-13 20 21 0
12 21 -22 0
-12 -21 -22 0
12 -21 22 0
-12 21 22 0
-24 23 0
-24 -23 0
-25 24 0
-25 -15 0
-24 15 25 0
-26 -22 0
-26 -25 0
22 25 26 0
-27 -6 0
-27 13 0
6 -13 27 0
28 26 0
28 -27 0
-26 27 -28 0
24 18 -29 0
-24 -18 -29 0
24 -18 29 0
-24 18 29 0
-30 -18 0
-30 29 0
18 -29 30 0
31 17 0
31 -5 0
-17 5 -31 0
-32 31 0
-32 -14 0
-31 14 32 0
-30 -32 -33 0
30 32 -33 0
-30 32 33 0
30 -32 33 0
-34 28 0
-34 33 0
-28 -33 34 0
36 -35 0
36 17 0
35 -17 -36 0
37 -9 0
37 -8 0
9 8 -37 0
-38 -19 0
-38 -37 0
19 37 38 0
-39 36 0
-39 38 0
-36 -38 39 0
41 -40 0
41 -7 0
40 7 -41 0
42 23 0
42 -41 0
-23 41 -42 0
39 42 -43 0
-39 -42 -43 0
39 -42 43 0
-39 42 43 0
-34 43 -44 0
34 -43 -44 0
-34 -43 44 0
34 43 44 0
45 -11 0
45 44 0
11 -44 -45 0
14 -23 -46 0
-14 23 -46 0
14 23 46 0
-14 -23 46 0
47 -45 0
47 -46 0
45 46 -47 0
-48 -24 0
-48 6 0
24 -6 48 0
-8 -5 -49 0
8 5 -49 0
-8 5 49 0
8 -5 49 0
-48 -49 -50 0
48 49 -50 0
-48 49 50 0
48 -49 50 0
-35 -40 -51 0
35 40 -51 0
-35 40 51 0
35 -40 51 0
51 37 -52 0
-51 -37 -52 0
51 -37 52 0
-51 37 52 0
53 -36 0
53 -5 0
36 5 -53 0
54 -52 0
54 53 0
52 -53 -54 0
-50 54 -55 0
50 -54 -55 0
-50 -54 55 0
50 54 55 0
56 47 0
56 55 0
-47 -55 -56 0
58 1 0
58 -57 0
-1 57 -58 0
-58 -31 -59 0
58 31 -59 0
-58 31 59 0
58 -31 59 0
-60 8 0
-60 -7 0
-8 7 60 0
61 -60 0
61 -37 0
60 37 -61 0
-62 57 0
-62 61 0
-57 -61 62 0
-63 -23 0
-63 36 0
23 -36 63 0
24 -29 -64 0
-24 29 -64 0
24 29 64 0
-24 -29 64 0
63 -64 -65 0
-63 64 -65 0
63 64 65 0
-63 -64 65 0
-66 62 0
-66 -65 0
-62 65 66 0
-67 18 0
-67 13 0
-18 -13 67 0
-66 -67 -68 0
66 67 -68 0
-66 67 68 0
66 -67 68 0
-69 -25 0
-69 -35 0
25 35 69 0
57 70 -71 0
-57 -70 -71 0
57 -70 71 0
-57 70 71 0
31 12 -72 0
-31 -12 -72 0
31 -12 72 0
-31 12 72 0
-73 71 0
-73 72 0
-71 -72 73 0
69 73 -74 0
-69 -73 -74 0
69 -73 74 0
-69 73 74 0
-75 -4 0
-75 -5 0
4 5 75 0
-75 76 -77 0
75 -76 -77 0
-75 -76 77 0
75 76 77 0
78 -5 0
78 41 0
5 -41 -78 0
79 -77 0
79 -78 0
77 78 -79 0
80 74 0
80 -79 0
-74 79 -80 0
81 68 0
81 80 0
-68 -80 -81 0
82 59 0
82 -81 0
-59 81 -82 0
83 56 0
83 82 0
-56 -82 -83 0
52 82 81 13 0
-55 -3 22 20 31 0
-73 -75 -31 -61 0
18 49 21 52 0
-71 13 -48 -41 0
-77 56 -22 -29 30 0
-44 -27 -63 -26 6 0
-10 -65 -74 0
47 36 81 28 0
-59 -70 0
47 -56 49 0
39 -10 -80 0
20 81 -47 7 -66 0
-11 63 -56 -68 0
25 24 -36 -15 -64 0
-52 -56 -54 55 41 -42 0
-22 48 0
-22 -44 -42 -72 0
-44 60 66 21 0
-77 -69 36 0
-72 58 0
19 20 0
-17 24 -56 0
17 -4 -65 71 15 2 0
51 12 42 -61 -82 0
62 -82 30 0
-45 61 16 24 63 0
51 -57 -38 7 -62 53 0
-41 -40 -39 30 -75 -15 0
-60 52 0
-64 26 -17 -16 -7 0
74 -18 -82 0
-8 -42 -83 -29 -58 -70 0
-69 30 -77 -21 -70 75 0
30 66 76 47 8 73 0
38 -23 5 67 0
-36 32 -12 64 0
-80 10 79 -65 -17 0
-56 -36 -17 1 0
-25 -82 -9 -66 0
49 -18 0
-24 31 29 48 71 0
30 25 0
57 -77 29 75 -73 2 0
29 -69 -64 40 -18 -4 0
83 0
